n = 50;
C = 249;
w = [487,9,277,17,468,40,200,427,46,395,458,83,176,48,456,24,281,471,298,374,347,124,118,429,342,71,352,107,43,251,188,103,186,351,458,431,40,257,423,329,197,163,266,433,453,194,338,186,57,221];
p = [487,9,277,17,468,40,200,427,46,395,458,83,176,48,456,24,281,471,298,374,347,124,118,429,342,71,352,107,43,251,188,103,186,351,458,431,40,257,423,329,197,163,266,433,453,194,338,186,57,221];
